p cnf 764 2343
e 764 1 763 0
a 179 0
e 218 762 4 3 2 220 761 0
a 180 181 0
e 223 760 15 14 13 12 11 10 9 8 7 6 5 746 753 756 759 757 758 754 755 748 752 749 750 751 747 0
a 182 183 184 0
e 230 745 31 30 29 28 27 26 25 24 23 22 21 20 19 18 17 16 236 239 242 245 248 250 253 256 258 260 262 263 744 0
a 185 186 187 0
e 270 743 47 46 45 44 43 42 41 40 39 38 37 36 35 34 33 32 273 279 282 285 288 291 294 297 299 302 305 307 309 311 312 742 0
a 188 189 190 0
e 319 741 63 62 61 60 59 58 57 56 55 54 53 52 51 50 49 48 322 328 331 334 337 340 343 346 348 351 354 356 358 360 361 740 0
a 191 192 193 0
e 368 739 79 78 77 76 75 74 73 72 71 70 69 68 67 66 65 64 371 377 380 383 386 389 392 395 397 400 403 405 407 409 410 738 0
a 194 195 196 0
e 417 737 95 94 93 92 91 90 89 88 87 86 85 84 83 82 81 80 420 426 429 432 435 438 441 444 446 449 452 454 456 458 459 736 0
a 197 198 199 0
e 466 735 111 110 109 108 107 106 105 104 103 102 101 100 99 98 97 96 469 475 478 481 484 487 490 493 495 498 501 503 505 507 508 734 0
a 200 201 202 0
e 515 733 127 126 125 124 123 122 121 120 119 118 117 116 115 114 113 112 518 524 527 530 533 536 539 542 544 547 550 552 554 556 557 732 0
a 203 204 205 0
e 564 731 144 143 142 141 140 139 138 137 136 135 134 133 132 131 130 129 128 567 574 577 580 583 586 589 592 594 597 599 601 603 605 606 730 0
a 206 207 208 0
e 613 729 159 158 157 156 155 154 153 152 151 150 149 148 147 146 145 616 621 624 627 630 633 636 639 642 644 647 649 651 653 655 726 727 728 0
a 209 210 211 0
e 660 725 169 168 167 166 165 164 163 162 161 160 663 667 670 673 676 679 682 684 686 688 722 723 724 0
a 212 213 214 0
e 693 721 175 174 173 172 171 170 696 699 701 704 706 707 720 0
a 215 216 0
e 710 719 178 177 176 713 716 717 718 715 714 711 712 708 709 705 702 703 700 698 697 695 694 689 690 691 692 687 685 683 681 680 678 677 675 674 672 671 669 668 665 666 664 662 661 656 657 658 659 654 652 650 648 645 646 643 641 640 638 637 635 634 632 631 629 628 626 625 623 622 618 620 619 617 615 614 607 608 609 610 611 612 604 602 600 598 595 596 593 591 590 588 587 585 584 582 581 579 578 576 575 569 573 570 571 572 568 566 565 558 559 560 561 562 563 555 553 551 548 549 545 546 543 541 540 538 537 535 534 532 531 529 528 526 525 520 523 521 522 519 517 516 509 510 511 512 513 514 506 504 502 499 500 496 497 494 492 491 489 488 486 485 483 482 480 479 477 476 471 474 472 473 470 468 467 460 461 462 463 464 465 457 455 453 450 451 447 448 445 443 442 440 439 437 436 434 433 431 430 428 427 422 425 423 424 421 419 418 411 412 413 414 415 416 408 406 404 401 402 398 399 396 394 393 391 390 388 387 385 384 382 381 379 378 373 376 374 375 372 370 369 362 363 364 365 366 367 359 357 355 352 353 349 350 347 345 344 342 341 339 338 336 335 333 332 330 329 324 327 325 326 323 321 320 313 314 315 316 317 318 310 308 306 303 304 300 301 298 296 295 293 292 290 289 287 286 284 283 281 280 275 278 276 277 274 272 271 264 265 266 267 268 269 261 259 257 254 255 251 252 249 247 246 244 243 241 240 238 237 232 235 233 234 231 224 225 226 227 228 229 221 222 219 0
764 0
764 -763 -1 0
763 -764 0
1 -764 0
218 762 -763 0
763 -218 0
763 -762 0
-218 -179 -1 0
179 218 0
1 218 0
762 -220 -761 0
220 -762 0
761 -762 0
219 -220 -179 0
179 220 0
220 -219 0
219 -4 -2 -3 0
4 -219 0
2 -219 0
3 -219 0
223 760 -761 0
761 -223 0
761 -760 0
223 -221 -222 0
221 -223 0
222 -223 0
180 -221 -3 -181 0
3 221 0
221 -180 0
181 221 0
-222 -2 -180 -181 0
2 222 0
180 222 0
181 222 0
760 -746 -753 -756 -759 0
746 -760 0
753 -760 0
756 -760 0
759 -760 0
230 745 -746 0
746 -230 0
746 -745 0
230 -224 -225 -226 -227 -228 -229 0
224 -230 0
225 -230 0
226 -230 0
227 -230 0
228 -230 0
229 -230 0
182 184 -224 -10 -183 0
10 224 0
224 -182 0
183 224 0
224 -184 0
184 -225 -9 -182 -183 0
9 225 0
182 225 0
183 225 0
225 -184 0
182 183 -226 -8 -184 0
8 226 0
226 -182 0
226 -183 0
184 226 0
183 -227 -7 -182 -184 0
7 227 0
182 227 0
227 -183 0
184 227 0
182 -228 -6 -183 -184 0
6 228 0
228 -182 0
183 228 0
184 228 0
-229 -5 -182 -183 -184 0
5 229 0
182 229 0
183 229 0
184 229 0
745 -236 -239 -242 -245 -248 -250 -253 -256 -258 -260 -262 -263 -744 0
236 -745 0
239 -745 0
242 -745 0
245 -745 0
248 -745 0
250 -745 0
253 -745 0
256 -745 0
258 -745 0
260 -745 0
262 -745 0
263 -745 0
744 -745 0
232 235 -236 0
236 -232 0
236 -235 0
231 -232 -15 0
15 232 0
232 -231 0
231 10 9 8 7 6 5 0
-10 -231 0
-9 -231 0
-8 -231 0
-7 -231 0
-6 -231 0
-5 -231 0
235 -28 -233 -234 0
28 -235 0
233 -235 0
234 -235 0
16 23 -233 0
233 -16 0
233 -23 0
18 25 -234 0
234 -18 0
234 -25 0
238 21 24 -239 0
239 -238 0
239 -21 0
239 -24 0
237 -238 -14 0
14 238 0
238 -237 0
237 10 9 8 7 6 5 0
-10 -237 0
-9 -237 0
-8 -237 0
-7 -237 0
-6 -237 0
-5 -237 0
241 29 -242 0
242 -241 0
242 -29 0
240 -241 -13 0
13 241 0
241 -240 0
240 10 9 8 7 6 5 0
-10 -240 0
-9 -240 0
-8 -240 0
-7 -240 0
-6 -240 0
-5 -240 0
244 26 -245 0
245 -244 0
245 -26 0
243 -244 -12 0
12 244 0
244 -243 0
243 10 9 8 7 6 5 0
-10 -243 0
-9 -243 0
-8 -243 0
-7 -243 0
-6 -243 0
-5 -243 0
247 22 -248 0
248 -247 0
248 -22 0
246 -247 -11 0
11 247 0
247 -246 0
246 10 9 8 7 6 5 0
-10 -246 0
-9 -246 0
-8 -246 0
-7 -246 0
-6 -246 0
-5 -246 0
249 31 -250 0
250 -249 0
250 -31 0
182 184 -249 -183 0
249 -182 0
183 249 0
249 -184 0
251 252 -253 0
253 -251 0
253 -252 0
184 -251 -182 -183 0
182 251 0
183 251 0
251 -184 0
252 -27 -19 -20 0
27 -252 0
19 -252 0
20 -252 0
254 255 -256 0
256 -254 0
256 -255 0
182 183 -254 -184 0
254 -182 0
254 -183 0
184 254 0
255 -18 -17 0
18 -255 0
17 -255 0
257 30 -258 0
258 -257 0
258 -30 0
183 -257 -182 -184 0
182 257 0
257 -183 0
184 257 0
259 29 -260 0
260 -259 0
260 -29 0
182 -259 -183 -184 0
259 -182 0
183 259 0
184 259 0
261 26 -262 0
262 -261 0
262 -26 0
-261 -182 -183 -184 0
182 261 0
183 261 0
184 261 0
-263 -30 -31 0
30 263 0
31 263 0
270 743 -744 0
744 -270 0
744 -743 0
270 -264 -265 -266 -267 -268 -269 0
264 -270 0
265 -270 0
266 -270 0
267 -270 0
268 -270 0
269 -270 0
185 187 -264 -21 -186 0
21 264 0
264 -185 0
186 264 0
264 -187 0
187 -265 -20 -185 -186 0
20 265 0
185 265 0
186 265 0
265 -187 0
185 186 -266 -19 -187 0
19 266 0
266 -185 0
266 -186 0
187 266 0
186 -267 -18 -185 -187 0
18 267 0
185 267 0
267 -186 0
187 267 0
185 -268 -17 -186 -187 0
17 268 0
268 -185 0
186 268 0
187 268 0
-269 -16 -185 -186 -187 0
16 269 0
185 269 0
186 269 0
187 269 0
743 -273 -279 -282 -285 -288 -291 -294 -297 -299 -302 -305 -307 -309 -311 -312 -742 0
273 -743 0
279 -743 0
282 -743 0
285 -743 0
288 -743 0
291 -743 0
294 -743 0
297 -743 0
299 -743 0
302 -743 0
305 -743 0
307 -743 0
309 -743 0
311 -743 0
312 -743 0
742 -743 0
272 47 -273 0
273 -272 0
273 -47 0
271 -272 -29 0
29 272 0
272 -271 0
271 21 20 19 18 17 16 0
-21 -271 0
-20 -271 0
-19 -271 0
-18 -271 0
-17 -271 0
-16 -271 0
275 278 -279 0
279 -275 0
279 -278 0
274 -275 -28 0
28 275 0
275 -274 0
274 21 20 19 18 17 16 0
-21 -274 0
-20 -274 0
-19 -274 0
-18 -274 0
-17 -274 0
-16 -274 0
278 -44 -276 -277 0
44 -278 0
276 -278 0
277 -278 0
32 39 -276 0
276 -32 0
276 -39 0
34 41 -277 0
277 -34 0
277 -41 0
281 37 40 -282 0
282 -281 0
282 -37 0
282 -40 0
280 -281 -27 0
27 281 0
281 -280 0
280 21 20 19 18 17 16 0
-21 -280 0
-20 -280 0
-19 -280 0
-18 -280 0
-17 -280 0
-16 -280 0
284 46 -285 0
285 -284 0
285 -46 0
283 -284 -26 0
26 284 0
284 -283 0
283 21 20 19 18 17 16 0
-21 -283 0
-20 -283 0
-19 -283 0
-18 -283 0
-17 -283 0
-16 -283 0
287 45 -288 0
288 -287 0
288 -45 0
286 -287 -25 0
25 287 0
287 -286 0
286 21 20 19 18 17 16 0
-21 -286 0
-20 -286 0
-19 -286 0
-18 -286 0
-17 -286 0
-16 -286 0
290 42 -291 0
291 -290 0
291 -42 0
289 -290 -24 0
24 290 0
290 -289 0
289 21 20 19 18 17 16 0
-21 -289 0
-20 -289 0
-19 -289 0
-18 -289 0
-17 -289 0
-16 -289 0
293 38 -294 0
294 -293 0
294 -38 0
292 -293 -23 0
23 293 0
293 -292 0
292 21 20 19 18 17 16 0
-21 -292 0
-20 -292 0
-19 -292 0
-18 -292 0
-17 -292 0
-16 -292 0
296 37 -297 0
297 -296 0
297 -37 0
295 -296 -22 0
22 296 0
296 -295 0
295 21 20 19 18 17 16 0
-21 -295 0
-20 -295 0
-19 -295 0
-18 -295 0
-17 -295 0
-16 -295 0
298 47 -299 0
299 -298 0
299 -47 0
185 187 -298 -186 0
298 -185 0
186 298 0
298 -187 0
300 301 -302 0
302 -300 0
302 -301 0
187 -300 -185 -186 0
185 300 0
186 300 0
300 -187 0
301 -43 -35 -36 0
43 -301 0
35 -301 0
36 -301 0
303 304 -305 0
305 -303 0
305 -304 0
185 186 -303 -187 0
303 -185 0
303 -186 0
187 303 0
304 -34 -33 0
34 -304 0
33 -304 0
306 46 -307 0
307 -306 0
307 -46 0
186 -306 -185 -187 0
185 306 0
306 -186 0
187 306 0
308 45 -309 0
309 -308 0
309 -45 0
185 -308 -186 -187 0
308 -185 0
186 308 0
187 308 0
310 42 -311 0
311 -310 0
311 -42 0
-310 -185 -186 -187 0
185 310 0
186 310 0
187 310 0
-312 -46 -47 0
46 312 0
47 312 0
319 741 -742 0
742 -319 0
742 -741 0
319 -313 -314 -315 -316 -317 -318 0
313 -319 0
314 -319 0
315 -319 0
316 -319 0
317 -319 0
318 -319 0
188 190 -313 -37 -189 0
37 313 0
313 -188 0
189 313 0
313 -190 0
190 -314 -36 -188 -189 0
36 314 0
188 314 0
189 314 0
314 -190 0
188 189 -315 -35 -190 0
35 315 0
315 -188 0
315 -189 0
190 315 0
189 -316 -34 -188 -190 0
34 316 0
188 316 0
316 -189 0
190 316 0
188 -317 -33 -189 -190 0
33 317 0
317 -188 0
189 317 0
190 317 0
-318 -32 -188 -189 -190 0
32 318 0
188 318 0
189 318 0
190 318 0
741 -322 -328 -331 -334 -337 -340 -343 -346 -348 -351 -354 -356 -358 -360 -361 -740 0
322 -741 0
328 -741 0
331 -741 0
334 -741 0
337 -741 0
340 -741 0
343 -741 0
346 -741 0
348 -741 0
351 -741 0
354 -741 0
356 -741 0
358 -741 0
360 -741 0
361 -741 0
740 -741 0
321 63 -322 0
322 -321 0
322 -63 0
320 -321 -45 0
45 321 0
321 -320 0
320 37 36 35 34 33 32 0
-37 -320 0
-36 -320 0
-35 -320 0
-34 -320 0
-33 -320 0
-32 -320 0
324 327 -328 0
328 -324 0
328 -327 0
323 -324 -44 0
44 324 0
324 -323 0
323 37 36 35 34 33 32 0
-37 -323 0
-36 -323 0
-35 -323 0
-34 -323 0
-33 -323 0
-32 -323 0
327 -60 -325 -326 0
60 -327 0
325 -327 0
326 -327 0
48 55 -325 0
325 -48 0
325 -55 0
50 57 -326 0
326 -50 0
326 -57 0
330 53 56 -331 0
331 -330 0
331 -53 0
331 -56 0
329 -330 -43 0
43 330 0
330 -329 0
329 37 36 35 34 33 32 0
-37 -329 0
-36 -329 0
-35 -329 0
-34 -329 0
-33 -329 0
-32 -329 0
333 62 -334 0
334 -333 0
334 -62 0
332 -333 -42 0
42 333 0
333 -332 0
332 37 36 35 34 33 32 0
-37 -332 0
-36 -332 0
-35 -332 0
-34 -332 0
-33 -332 0
-32 -332 0
336 61 -337 0
337 -336 0
337 -61 0
335 -336 -41 0
41 336 0
336 -335 0
335 37 36 35 34 33 32 0
-37 -335 0
-36 -335 0
-35 -335 0
-34 -335 0
-33 -335 0
-32 -335 0
339 58 -340 0
340 -339 0
340 -58 0
338 -339 -40 0
40 339 0
339 -338 0
338 37 36 35 34 33 32 0
-37 -338 0
-36 -338 0
-35 -338 0
-34 -338 0
-33 -338 0
-32 -338 0
342 54 -343 0
343 -342 0
343 -54 0
341 -342 -39 0
39 342 0
342 -341 0
341 37 36 35 34 33 32 0
-37 -341 0
-36 -341 0
-35 -341 0
-34 -341 0
-33 -341 0
-32 -341 0
345 53 -346 0
346 -345 0
346 -53 0
344 -345 -38 0
38 345 0
345 -344 0
344 37 36 35 34 33 32 0
-37 -344 0
-36 -344 0
-35 -344 0
-34 -344 0
-33 -344 0
-32 -344 0
347 63 -348 0
348 -347 0
348 -63 0
188 190 -347 -189 0
347 -188 0
189 347 0
347 -190 0
349 350 -351 0
351 -349 0
351 -350 0
190 -349 -188 -189 0
188 349 0
189 349 0
349 -190 0
350 -59 -51 -52 0
59 -350 0
51 -350 0
52 -350 0
352 353 -354 0
354 -352 0
354 -353 0
188 189 -352 -190 0
352 -188 0
352 -189 0
190 352 0
353 -50 -49 0
50 -353 0
49 -353 0
355 62 -356 0
356 -355 0
356 -62 0
189 -355 -188 -190 0
188 355 0
355 -189 0
190 355 0
357 61 -358 0
358 -357 0
358 -61 0
188 -357 -189 -190 0
357 -188 0
189 357 0
190 357 0
359 58 -360 0
360 -359 0
360 -58 0
-359 -188 -189 -190 0
188 359 0
189 359 0
190 359 0
-361 -62 -63 0
62 361 0
63 361 0
368 739 -740 0
740 -368 0
740 -739 0
368 -362 -363 -364 -365 -366 -367 0
362 -368 0
363 -368 0
364 -368 0
365 -368 0
366 -368 0
367 -368 0
191 193 -362 -53 -192 0
53 362 0
362 -191 0
192 362 0
362 -193 0
193 -363 -52 -191 -192 0
52 363 0
191 363 0
192 363 0
363 -193 0
191 192 -364 -51 -193 0
51 364 0
364 -191 0
364 -192 0
193 364 0
192 -365 -50 -191 -193 0
50 365 0
191 365 0
365 -192 0
193 365 0
191 -366 -49 -192 -193 0
49 366 0
366 -191 0
192 366 0
193 366 0
-367 -48 -191 -192 -193 0
48 367 0
191 367 0
192 367 0
193 367 0
739 -371 -377 -380 -383 -386 -389 -392 -395 -397 -400 -403 -405 -407 -409 -410 -738 0
371 -739 0
377 -739 0
380 -739 0
383 -739 0
386 -739 0
389 -739 0
392 -739 0
395 -739 0
397 -739 0
400 -739 0
403 -739 0
405 -739 0
407 -739 0
409 -739 0
410 -739 0
738 -739 0
370 79 -371 0
371 -370 0
371 -79 0
369 -370 -61 0
61 370 0
370 -369 0
369 53 52 51 50 49 48 0
-53 -369 0
-52 -369 0
-51 -369 0
-50 -369 0
-49 -369 0
-48 -369 0
373 376 -377 0
377 -373 0
377 -376 0
372 -373 -60 0
60 373 0
373 -372 0
372 53 52 51 50 49 48 0
-53 -372 0
-52 -372 0
-51 -372 0
-50 -372 0
-49 -372 0
-48 -372 0
376 -76 -374 -375 0
76 -376 0
374 -376 0
375 -376 0
64 71 -374 0
374 -64 0
374 -71 0
66 73 -375 0
375 -66 0
375 -73 0
379 69 72 -380 0
380 -379 0
380 -69 0
380 -72 0
378 -379 -59 0
59 379 0
379 -378 0
378 53 52 51 50 49 48 0
-53 -378 0
-52 -378 0
-51 -378 0
-50 -378 0
-49 -378 0
-48 -378 0
382 78 -383 0
383 -382 0
383 -78 0
381 -382 -58 0
58 382 0
382 -381 0
381 53 52 51 50 49 48 0
-53 -381 0
-52 -381 0
-51 -381 0
-50 -381 0
-49 -381 0
-48 -381 0
385 77 -386 0
386 -385 0
386 -77 0
384 -385 -57 0
57 385 0
385 -384 0
384 53 52 51 50 49 48 0
-53 -384 0
-52 -384 0
-51 -384 0
-50 -384 0
-49 -384 0
-48 -384 0
388 74 -389 0
389 -388 0
389 -74 0
387 -388 -56 0
56 388 0
388 -387 0
387 53 52 51 50 49 48 0
-53 -387 0
-52 -387 0
-51 -387 0
-50 -387 0
-49 -387 0
-48 -387 0
391 70 -392 0
392 -391 0
392 -70 0
390 -391 -55 0
55 391 0
391 -390 0
390 53 52 51 50 49 48 0
-53 -390 0
-52 -390 0
-51 -390 0
-50 -390 0
-49 -390 0
-48 -390 0
394 69 -395 0
395 -394 0
395 -69 0
393 -394 -54 0
54 394 0
394 -393 0
393 53 52 51 50 49 48 0
-53 -393 0
-52 -393 0
-51 -393 0
-50 -393 0
-49 -393 0
-48 -393 0
396 79 -397 0
397 -396 0
397 -79 0
191 193 -396 -192 0
396 -191 0
192 396 0
396 -193 0
398 399 -400 0
400 -398 0
400 -399 0
193 -398 -191 -192 0
191 398 0
192 398 0
398 -193 0
399 -75 -67 -68 0
75 -399 0
67 -399 0
68 -399 0
401 402 -403 0
403 -401 0
403 -402 0
191 192 -401 -193 0
401 -191 0
401 -192 0
193 401 0
402 -66 -65 0
66 -402 0
65 -402 0
404 78 -405 0
405 -404 0
405 -78 0
192 -404 -191 -193 0
191 404 0
404 -192 0
193 404 0
406 77 -407 0
407 -406 0
407 -77 0
191 -406 -192 -193 0
406 -191 0
192 406 0
193 406 0
408 74 -409 0
409 -408 0
409 -74 0
-408 -191 -192 -193 0
191 408 0
192 408 0
193 408 0
-410 -78 -79 0
78 410 0
79 410 0
417 737 -738 0
738 -417 0
738 -737 0
417 -411 -412 -413 -414 -415 -416 0
411 -417 0
412 -417 0
413 -417 0
414 -417 0
415 -417 0
416 -417 0
194 196 -411 -69 -195 0
69 411 0
411 -194 0
195 411 0
411 -196 0
196 -412 -68 -194 -195 0
68 412 0
194 412 0
195 412 0
412 -196 0
194 195 -413 -67 -196 0
67 413 0
413 -194 0
413 -195 0
196 413 0
195 -414 -66 -194 -196 0
66 414 0
194 414 0
414 -195 0
196 414 0
194 -415 -65 -195 -196 0
65 415 0
415 -194 0
195 415 0
196 415 0
-416 -64 -194 -195 -196 0
64 416 0
194 416 0
195 416 0
196 416 0
737 -420 -426 -429 -432 -435 -438 -441 -444 -446 -449 -452 -454 -456 -458 -459 -736 0
420 -737 0
426 -737 0
429 -737 0
432 -737 0
435 -737 0
438 -737 0
441 -737 0
444 -737 0
446 -737 0
449 -737 0
452 -737 0
454 -737 0
456 -737 0
458 -737 0
459 -737 0
736 -737 0
419 95 -420 0
420 -419 0
420 -95 0
418 -419 -77 0
77 419 0
419 -418 0
418 69 68 67 66 65 64 0
-69 -418 0
-68 -418 0
-67 -418 0
-66 -418 0
-65 -418 0
-64 -418 0
422 425 -426 0
426 -422 0
426 -425 0
421 -422 -76 0
76 422 0
422 -421 0
421 69 68 67 66 65 64 0
-69 -421 0
-68 -421 0
-67 -421 0
-66 -421 0
-65 -421 0
-64 -421 0
425 -92 -423 -424 0
92 -425 0
423 -425 0
424 -425 0
80 87 -423 0
423 -80 0
423 -87 0
82 89 -424 0
424 -82 0
424 -89 0
428 85 88 -429 0
429 -428 0
429 -85 0
429 -88 0
427 -428 -75 0
75 428 0
428 -427 0
427 69 68 67 66 65 64 0
-69 -427 0
-68 -427 0
-67 -427 0
-66 -427 0
-65 -427 0
-64 -427 0
431 94 -432 0
432 -431 0
432 -94 0
430 -431 -74 0
74 431 0
431 -430 0
430 69 68 67 66 65 64 0
-69 -430 0
-68 -430 0
-67 -430 0
-66 -430 0
-65 -430 0
-64 -430 0
434 93 -435 0
435 -434 0
435 -93 0
433 -434 -73 0
73 434 0
434 -433 0
433 69 68 67 66 65 64 0
-69 -433 0
-68 -433 0
-67 -433 0
-66 -433 0
-65 -433 0
-64 -433 0
437 90 -438 0
438 -437 0
438 -90 0
436 -437 -72 0
72 437 0
437 -436 0
436 69 68 67 66 65 64 0
-69 -436 0
-68 -436 0
-67 -436 0
-66 -436 0
-65 -436 0
-64 -436 0
440 86 -441 0
441 -440 0
441 -86 0
439 -440 -71 0
71 440 0
440 -439 0
439 69 68 67 66 65 64 0
-69 -439 0
-68 -439 0
-67 -439 0
-66 -439 0
-65 -439 0
-64 -439 0
443 85 -444 0
444 -443 0
444 -85 0
442 -443 -70 0
70 443 0
443 -442 0
442 69 68 67 66 65 64 0
-69 -442 0
-68 -442 0
-67 -442 0
-66 -442 0
-65 -442 0
-64 -442 0
445 95 -446 0
446 -445 0
446 -95 0
194 196 -445 -195 0
445 -194 0
195 445 0
445 -196 0
447 448 -449 0
449 -447 0
449 -448 0
196 -447 -194 -195 0
194 447 0
195 447 0
447 -196 0
448 -91 -83 -84 0
91 -448 0
83 -448 0
84 -448 0
450 451 -452 0
452 -450 0
452 -451 0
194 195 -450 -196 0
450 -194 0
450 -195 0
196 450 0
451 -82 -81 0
82 -451 0
81 -451 0
453 94 -454 0
454 -453 0
454 -94 0
195 -453 -194 -196 0
194 453 0
453 -195 0
196 453 0
455 93 -456 0
456 -455 0
456 -93 0
194 -455 -195 -196 0
455 -194 0
195 455 0
196 455 0
457 90 -458 0
458 -457 0
458 -90 0
-457 -194 -195 -196 0
194 457 0
195 457 0
196 457 0
-459 -94 -95 0
94 459 0
95 459 0
466 735 -736 0
736 -466 0
736 -735 0
466 -460 -461 -462 -463 -464 -465 0
460 -466 0
461 -466 0
462 -466 0
463 -466 0
464 -466 0
465 -466 0
197 199 -460 -85 -198 0
85 460 0
460 -197 0
198 460 0
460 -199 0
199 -461 -84 -197 -198 0
84 461 0
197 461 0
198 461 0
461 -199 0
197 198 -462 -83 -199 0
83 462 0
462 -197 0
462 -198 0
199 462 0
198 -463 -82 -197 -199 0
82 463 0
197 463 0
463 -198 0
199 463 0
197 -464 -81 -198 -199 0
81 464 0
464 -197 0
198 464 0
199 464 0
-465 -80 -197 -198 -199 0
80 465 0
197 465 0
198 465 0
199 465 0
735 -469 -475 -478 -481 -484 -487 -490 -493 -495 -498 -501 -503 -505 -507 -508 -734 0
469 -735 0
475 -735 0
478 -735 0
481 -735 0
484 -735 0
487 -735 0
490 -735 0
493 -735 0
495 -735 0
498 -735 0
501 -735 0
503 -735 0
505 -735 0
507 -735 0
508 -735 0
734 -735 0
468 111 -469 0
469 -468 0
469 -111 0
467 -468 -93 0
93 468 0
468 -467 0
467 85 84 83 82 81 80 0
-85 -467 0
-84 -467 0
-83 -467 0
-82 -467 0
-81 -467 0
-80 -467 0
471 474 -475 0
475 -471 0
475 -474 0
470 -471 -92 0
92 471 0
471 -470 0
470 85 84 83 82 81 80 0
-85 -470 0
-84 -470 0
-83 -470 0
-82 -470 0
-81 -470 0
-80 -470 0
474 -108 -472 -473 0
108 -474 0
472 -474 0
473 -474 0
96 103 -472 0
472 -96 0
472 -103 0
98 105 -473 0
473 -98 0
473 -105 0
477 101 104 -478 0
478 -477 0
478 -101 0
478 -104 0
476 -477 -91 0
91 477 0
477 -476 0
476 85 84 83 82 81 80 0
-85 -476 0
-84 -476 0
-83 -476 0
-82 -476 0
-81 -476 0
-80 -476 0
480 110 -481 0
481 -480 0
481 -110 0
479 -480 -90 0
90 480 0
480 -479 0
479 85 84 83 82 81 80 0
-85 -479 0
-84 -479 0
-83 -479 0
-82 -479 0
-81 -479 0
-80 -479 0
483 109 -484 0
484 -483 0
484 -109 0
482 -483 -89 0
89 483 0
483 -482 0
482 85 84 83 82 81 80 0
-85 -482 0
-84 -482 0
-83 -482 0
-82 -482 0
-81 -482 0
-80 -482 0
486 106 -487 0
487 -486 0
487 -106 0
485 -486 -88 0
88 486 0
486 -485 0
485 85 84 83 82 81 80 0
-85 -485 0
-84 -485 0
-83 -485 0
-82 -485 0
-81 -485 0
-80 -485 0
489 102 -490 0
490 -489 0
490 -102 0
488 -489 -87 0
87 489 0
489 -488 0
488 85 84 83 82 81 80 0
-85 -488 0
-84 -488 0
-83 -488 0
-82 -488 0
-81 -488 0
-80 -488 0
492 101 -493 0
493 -492 0
493 -101 0
491 -492 -86 0
86 492 0
492 -491 0
491 85 84 83 82 81 80 0
-85 -491 0
-84 -491 0
-83 -491 0
-82 -491 0
-81 -491 0
-80 -491 0
494 111 -495 0
495 -494 0
495 -111 0
197 199 -494 -198 0
494 -197 0
198 494 0
494 -199 0
496 497 -498 0
498 -496 0
498 -497 0
199 -496 -197 -198 0
197 496 0
198 496 0
496 -199 0
497 -107 -99 -100 0
107 -497 0
99 -497 0
100 -497 0
499 500 -501 0
501 -499 0
501 -500 0
197 198 -499 -199 0
499 -197 0
499 -198 0
199 499 0
500 -98 -97 0
98 -500 0
97 -500 0
502 110 -503 0
503 -502 0
503 -110 0
198 -502 -197 -199 0
197 502 0
502 -198 0
199 502 0
504 109 -505 0
505 -504 0
505 -109 0
197 -504 -198 -199 0
504 -197 0
198 504 0
199 504 0
506 106 -507 0
507 -506 0
507 -106 0
-506 -197 -198 -199 0
197 506 0
198 506 0
199 506 0
-508 -110 -111 0
110 508 0
111 508 0
515 733 -734 0
734 -515 0
734 -733 0
515 -509 -510 -511 -512 -513 -514 0
509 -515 0
510 -515 0
511 -515 0
512 -515 0
513 -515 0
514 -515 0
200 202 -509 -101 -201 0
101 509 0
509 -200 0
201 509 0
509 -202 0
202 -510 -100 -200 -201 0
100 510 0
200 510 0
201 510 0
510 -202 0
200 201 -511 -99 -202 0
99 511 0
511 -200 0
511 -201 0
202 511 0
201 -512 -98 -200 -202 0
98 512 0
200 512 0
512 -201 0
202 512 0
200 -513 -97 -201 -202 0
97 513 0
513 -200 0
201 513 0
202 513 0
-514 -96 -200 -201 -202 0
96 514 0
200 514 0
201 514 0
202 514 0
733 -518 -524 -527 -530 -533 -536 -539 -542 -544 -547 -550 -552 -554 -556 -557 -732 0
518 -733 0
524 -733 0
527 -733 0
530 -733 0
533 -733 0
536 -733 0
539 -733 0
542 -733 0
544 -733 0
547 -733 0
550 -733 0
552 -733 0
554 -733 0
556 -733 0
557 -733 0
732 -733 0
517 127 -518 0
518 -517 0
518 -127 0
516 -517 -109 0
109 517 0
517 -516 0
516 101 100 99 98 97 96 0
-101 -516 0
-100 -516 0
-99 -516 0
-98 -516 0
-97 -516 0
-96 -516 0
520 523 -524 0
524 -520 0
524 -523 0
519 -520 -108 0
108 520 0
520 -519 0
519 101 100 99 98 97 96 0
-101 -519 0
-100 -519 0
-99 -519 0
-98 -519 0
-97 -519 0
-96 -519 0
523 -124 -521 -522 0
124 -523 0
521 -523 0
522 -523 0
113 119 -521 0
521 -113 0
521 -119 0
115 121 -522 0
522 -115 0
522 -121 0
526 117 120 -527 0
527 -526 0
527 -117 0
527 -120 0
525 -526 -107 0
107 526 0
526 -525 0
525 101 100 99 98 97 96 0
-101 -525 0
-100 -525 0
-99 -525 0
-98 -525 0
-97 -525 0
-96 -525 0
529 126 -530 0
530 -529 0
530 -126 0
528 -529 -106 0
106 529 0
529 -528 0
528 101 100 99 98 97 96 0
-101 -528 0
-100 -528 0
-99 -528 0
-98 -528 0
-97 -528 0
-96 -528 0
532 125 -533 0
533 -532 0
533 -125 0
531 -532 -105 0
105 532 0
532 -531 0
531 101 100 99 98 97 96 0
-101 -531 0
-100 -531 0
-99 -531 0
-98 -531 0
-97 -531 0
-96 -531 0
535 122 -536 0
536 -535 0
536 -122 0
534 -535 -104 0
104 535 0
535 -534 0
534 101 100 99 98 97 96 0
-101 -534 0
-100 -534 0
-99 -534 0
-98 -534 0
-97 -534 0
-96 -534 0
538 118 -539 0
539 -538 0
539 -118 0
537 -538 -103 0
103 538 0
538 -537 0
537 101 100 99 98 97 96 0
-101 -537 0
-100 -537 0
-99 -537 0
-98 -537 0
-97 -537 0
-96 -537 0
541 117 -542 0
542 -541 0
542 -117 0
540 -541 -102 0
102 541 0
541 -540 0
540 101 100 99 98 97 96 0
-101 -540 0
-100 -540 0
-99 -540 0
-98 -540 0
-97 -540 0
-96 -540 0
543 127 -544 0
544 -543 0
544 -127 0
200 202 -543 -201 0
543 -200 0
201 543 0
543 -202 0
545 546 -547 0
547 -545 0
547 -546 0
202 -545 -200 -201 0
200 545 0
201 545 0
545 -202 0
546 -123 -116 -112 0
123 -546 0
116 -546 0
112 -546 0
548 549 -550 0
550 -548 0
550 -549 0
200 201 -548 -202 0
548 -200 0
548 -201 0
202 548 0
549 -115 -114 0
115 -549 0
114 -549 0
551 126 -552 0
552 -551 0
552 -126 0
201 -551 -200 -202 0
200 551 0
551 -201 0
202 551 0
553 125 -554 0
554 -553 0
554 -125 0
200 -553 -201 -202 0
553 -200 0
201 553 0
202 553 0
555 122 -556 0
556 -555 0
556 -122 0
-555 -200 -201 -202 0
200 555 0
201 555 0
202 555 0
-557 -126 -127 0
126 557 0
127 557 0
564 731 -732 0
732 -564 0
732 -731 0
564 -558 -559 -560 -561 -562 -563 0
558 -564 0
559 -564 0
560 -564 0
561 -564 0
562 -564 0
563 -564 0
203 205 -558 -117 -204 0
117 558 0
558 -203 0
204 558 0
558 -205 0
205 -559 -116 -203 -204 0
116 559 0
203 559 0
204 559 0
559 -205 0
203 204 -560 -115 -205 0
115 560 0
560 -203 0
560 -204 0
205 560 0
204 -561 -114 -203 -205 0
114 561 0
203 561 0
561 -204 0
205 561 0
203 -562 -113 -204 -205 0
113 562 0
562 -203 0
204 562 0
205 562 0
-563 -112 -203 -204 -205 0
112 563 0
203 563 0
204 563 0
205 563 0
731 -567 -574 -577 -580 -583 -586 -589 -592 -594 -597 -599 -601 -603 -605 -606 -730 0
567 -731 0
574 -731 0
577 -731 0
580 -731 0
583 -731 0
586 -731 0
589 -731 0
592 -731 0
594 -731 0
597 -731 0
599 -731 0
601 -731 0
603 -731 0
605 -731 0
606 -731 0
730 -731 0
566 144 -567 0
567 -566 0
567 -144 0
565 -566 -125 0
125 566 0
566 -565 0
565 117 116 115 114 113 112 0
-117 -565 0
-116 -565 0
-115 -565 0
-114 -565 0
-113 -565 0
-112 -565 0
569 573 -574 0
574 -569 0
574 -573 0
568 -569 -124 0
124 569 0
569 -568 0
568 117 116 115 114 113 112 0
-117 -568 0
-116 -568 0
-115 -568 0
-114 -568 0
-113 -568 0
-112 -568 0
573 -141 -570 -571 -572 -132 0
141 -573 0
570 -573 0
571 -573 0
572 -573 0
132 -573 0
128 137 -570 0
570 -128 0
570 -137 0
131 139 -571 0
571 -131 0
571 -139 0
129 136 -572 0
572 -129 0
572 -136 0
576 133 138 -577 0
577 -576 0
577 -133 0
577 -138 0
575 -576 -123 0
123 576 0
576 -575 0
575 117 116 115 114 113 112 0
-117 -575 0
-116 -575 0
-115 -575 0
-114 -575 0
-113 -575 0
-112 -575 0
579 143 -580 0
580 -579 0
580 -143 0
578 -579 -122 0
122 579 0
579 -578 0
578 117 116 115 114 113 112 0
-117 -578 0
-116 -578 0
-115 -578 0
-114 -578 0
-113 -578 0
-112 -578 0
582 142 -583 0
583 -582 0
583 -142 0
581 -582 -121 0
121 582 0
582 -581 0
581 117 116 115 114 113 112 0
-117 -581 0
-116 -581 0
-115 -581 0
-114 -581 0
-113 -581 0
-112 -581 0
585 140 -586 0
586 -585 0
586 -140 0
584 -585 -120 0
120 585 0
585 -584 0
584 117 116 115 114 113 112 0
-117 -584 0
-116 -584 0
-115 -584 0
-114 -584 0
-113 -584 0
-112 -584 0
588 135 -589 0
589 -588 0
589 -135 0
587 -588 -119 0
119 588 0
588 -587 0
587 117 116 115 114 113 112 0
-117 -587 0
-116 -587 0
-115 -587 0
-114 -587 0
-113 -587 0
-112 -587 0
591 133 -592 0
592 -591 0
592 -133 0
590 -591 -118 0
118 591 0
591 -590 0
590 117 116 115 114 113 112 0
-117 -590 0
-116 -590 0
-115 -590 0
-114 -590 0
-113 -590 0
-112 -590 0
593 144 -594 0
594 -593 0
594 -144 0
203 205 -593 -204 0
593 -203 0
204 593 0
593 -205 0
595 596 -597 0
597 -595 0
597 -596 0
205 -595 -203 -204 0
203 595 0
204 595 0
595 -205 0
596 -131 -130 0
131 -596 0
130 -596 0
598 143 -599 0
599 -598 0
599 -143 0
203 204 -598 -205 0
598 -203 0
598 -204 0
205 598 0
600 142 -601 0
601 -600 0
601 -142 0
204 -600 -203 -205 0
203 600 0
600 -204 0
205 600 0
602 140 -603 0
603 -602 0
603 -140 0
203 -602 -204 -205 0
602 -203 0
204 602 0
205 602 0
604 134 -605 0
605 -604 0
605 -134 0
-604 -203 -204 -205 0
203 604 0
204 604 0
205 604 0
-606 -143 -144 0
143 606 0
144 606 0
613 729 -730 0
730 -613 0
730 -729 0
613 -607 -608 -609 -610 -611 -612 0
607 -613 0
608 -613 0
609 -613 0
610 -613 0
611 -613 0
612 -613 0
206 208 -607 -133 -207 0
133 607 0
607 -206 0
207 607 0
607 -208 0
208 -608 -132 -206 -207 0
132 608 0
206 608 0
207 608 0
608 -208 0
206 207 -609 -131 -208 0
131 609 0
609 -206 0
609 -207 0
208 609 0
207 -610 -130 -206 -208 0
130 610 0
206 610 0
610 -207 0
208 610 0
206 -611 -129 -207 -208 0
129 611 0
611 -206 0
207 611 0
208 611 0
-612 -128 -206 -207 -208 0
128 612 0
206 612 0
207 612 0
208 612 0
729 -616 -621 -624 -627 -630 -633 -636 -639 -642 -644 -647 -649 -651 -653 -655 -726 -727 -728 0
616 -729 0
621 -729 0
624 -729 0
627 -729 0
630 -729 0
633 -729 0
636 -729 0
639 -729 0
642 -729 0
644 -729 0
647 -729 0
649 -729 0
651 -729 0
653 -729 0
655 -729 0
726 -729 0
727 -729 0
728 -729 0
615 158 -616 0
616 -615 0
616 -158 0
614 -615 -142 0
142 615 0
615 -614 0
614 133 132 131 130 129 128 0
-133 -614 0
-132 -614 0
-131 -614 0
-130 -614 0
-129 -614 0
-128 -614 0
618 620 -621 0
621 -618 0
621 -620 0
617 -618 -141 0
141 618 0
618 -617 0
617 133 132 131 130 129 128 0
-133 -617 0
-132 -617 0
-131 -617 0
-130 -617 0
-129 -617 0
-128 -617 0
620 -619 -146 0
619 -620 0
146 -620 0
154 149 157 -619 0
619 -154 0
619 -149 0
619 -157 0
623 156 -624 0
624 -623 0
624 -156 0
622 -623 -140 0
140 623 0
623 -622 0
622 133 132 131 130 129 128 0
-133 -622 0
-132 -622 0
-131 -622 0
-130 -622 0
-129 -622 0
-128 -622 0
626 155 -627 0
627 -626 0
627 -155 0
625 -626 -139 0
139 626 0
626 -625 0
625 133 132 131 130 129 128 0
-133 -625 0
-132 -625 0
-131 -625 0
-130 -625 0
-129 -625 0
-128 -625 0
629 152 -630 0
630 -629 0
630 -152 0
628 -629 -138 0
138 629 0
629 -628 0
628 133 132 131 130 129 128 0
-133 -628 0
-132 -628 0
-131 -628 0
-130 -628 0
-129 -628 0
-128 -628 0
632 151 -633 0
633 -632 0
633 -151 0
631 -632 -137 0
137 632 0
632 -631 0
631 133 132 131 130 129 128 0
-133 -631 0
-132 -631 0
-131 -631 0
-130 -631 0
-129 -631 0
-128 -631 0
635 150 -636 0
636 -635 0
636 -150 0
634 -635 -136 0
136 635 0
635 -634 0
634 133 132 131 130 129 128 0
-133 -634 0
-132 -634 0
-131 -634 0
-130 -634 0
-129 -634 0
-128 -634 0
638 147 -639 0
639 -638 0
639 -147 0
637 -638 -135 0
135 638 0
638 -637 0
637 133 132 131 130 129 128 0
-133 -637 0
-132 -637 0
-131 -637 0
-130 -637 0
-129 -637 0
-128 -637 0
641 145 -642 0
642 -641 0
642 -145 0
640 -641 -134 0
134 641 0
641 -640 0
640 133 132 131 130 129 128 0
-133 -640 0
-132 -640 0
-131 -640 0
-130 -640 0
-129 -640 0
-128 -640 0
643 158 -644 0
644 -643 0
644 -158 0
206 208 -643 -207 0
643 -206 0
207 643 0
643 -208 0
645 153 646 -647 0
647 -645 0
647 -153 0
647 -646 0
208 -645 -206 -207 0
206 645 0
207 645 0
645 -208 0
646 -159 -148 0
159 -646 0
148 -646 0
648 156 -649 0
649 -648 0
649 -156 0
206 207 -648 -208 0
648 -206 0
648 -207 0
208 648 0
650 155 -651 0
651 -650 0
651 -155 0
207 -650 -206 -208 0
206 650 0
650 -207 0
208 650 0
652 153 -653 0
653 -652 0
653 -153 0
206 -652 -207 -208 0
652 -206 0
207 652 0
208 652 0
654 152 -655 0
655 -654 0
655 -152 0
-654 -206 -207 -208 0
206 654 0
207 654 0
208 654 0
660 725 -726 0
726 -660 0
726 -725 0
660 -656 -657 -658 -659 0
656 -660 0
657 -660 0
658 -660 0
659 -660 0
209 210 -656 -148 -211 0
148 656 0
656 -209 0
656 -210 0
211 656 0
210 -657 -147 -209 -211 0
147 657 0
209 657 0
657 -210 0
211 657 0
209 -658 -146 -210 -211 0
146 658 0
658 -209 0
210 658 0
211 658 0
-659 -145 -209 -210 -211 0
145 659 0
209 659 0
210 659 0
211 659 0
725 -663 -667 -670 -673 -676 -679 -682 -684 -686 -688 -722 -723 -724 0
663 -725 0
667 -725 0
670 -725 0
673 -725 0
676 -725 0
679 -725 0
682 -725 0
684 -725 0
686 -725 0
688 -725 0
722 -725 0
723 -725 0
724 -725 0
662 168 -663 0
663 -662 0
663 -168 0
661 -662 -155 0
155 662 0
662 -661 0
661 148 147 146 145 0
-148 -661 0
-147 -661 0
-146 -661 0
-145 -661 0
665 666 -667 0
667 -665 0
667 -666 0
664 -665 -154 0
154 665 0
665 -664 0
664 148 147 146 145 0
-148 -664 0
-147 -664 0
-146 -664 0
-145 -664 0
666 -169 -163 0
169 -666 0
163 -666 0
669 167 -670 0
670 -669 0
670 -167 0
668 -669 -153 0
153 669 0
669 -668 0
668 148 147 146 145 0
-148 -668 0
-147 -668 0
-146 -668 0
-145 -668 0
672 166 -673 0
673 -672 0
673 -166 0
671 -672 -152 0
152 672 0
672 -671 0
671 148 147 146 145 0
-148 -671 0
-147 -671 0
-146 -671 0
-145 -671 0
675 162 -676 0
676 -675 0
676 -162 0
674 -675 -151 0
151 675 0
675 -674 0
674 148 147 146 145 0
-148 -674 0
-147 -674 0
-146 -674 0
-145 -674 0
678 161 -679 0
679 -678 0
679 -161 0
677 -678 -150 0
150 678 0
678 -677 0
677 148 147 146 145 0
-148 -677 0
-147 -677 0
-146 -677 0
-145 -677 0
681 160 -682 0
682 -681 0
682 -160 0
680 -681 -149 0
149 681 0
681 -680 0
680 148 147 146 145 0
-148 -680 0
-147 -680 0
-146 -680 0
-145 -680 0
683 168 -684 0
684 -683 0
684 -168 0
210 -683 -209 -211 0
209 683 0
683 -210 0
211 683 0
685 164 165 -686 0
686 -685 0
686 -164 0
686 -165 0
209 -685 -210 -211 0
685 -209 0
210 685 0
211 685 0
687 167 -688 0
688 -687 0
688 -167 0
-687 -209 -210 -211 0
209 687 0
210 687 0
211 687 0
693 721 -722 0
722 -693 0
722 -721 0
693 -689 -690 -691 -692 0
689 -693 0
690 -693 0
691 -693 0
692 -693 0
212 213 -689 -163 -214 0
163 689 0
689 -212 0
689 -213 0
214 689 0
213 -690 -162 -212 -214 0
162 690 0
212 690 0
690 -213 0
214 690 0
212 -691 -161 -213 -214 0
161 691 0
691 -212 0
213 691 0
214 691 0
-692 -160 -212 -213 -214 0
160 692 0
212 692 0
213 692 0
214 692 0
721 -696 -699 -701 -704 -706 -707 -720 0
696 -721 0
699 -721 0
701 -721 0
704 -721 0
706 -721 0
707 -721 0
720 -721 0
695 173 -696 0
696 -695 0
696 -173 0
694 -695 -165 0
165 695 0
695 -694 0
694 163 162 161 160 0
-163 -694 0
-162 -694 0
-161 -694 0
-160 -694 0
698 170 -699 0
699 -698 0
699 -170 0
697 -698 -164 0
164 698 0
698 -697 0
697 163 162 161 160 0
-163 -697 0
-162 -697 0
-161 -697 0
-160 -697 0
700 174 -701 0
701 -700 0
701 -174 0
213 -700 -212 -214 0
212 700 0
700 -213 0
214 700 0
702 703 -704 0
704 -702 0
704 -703 0
212 -702 -213 -214 0
702 -212 0
213 702 0
214 702 0
703 -175 -171 0
175 -703 0
171 -703 0
705 172 -706 0
706 -705 0
706 -172 0
-705 -212 -213 -214 0
212 705 0
213 705 0
214 705 0
-707 -173 -175 0
173 707 0
175 707 0
710 719 -720 0
720 -710 0
720 -719 0
710 -708 -709 0
708 -710 0
709 -710 0
215 -708 -171 -216 0
171 708 0
708 -215 0
216 708 0
-709 -170 -215 -216 0
170 709 0
215 709 0
216 709 0
719 -713 -716 -717 -718 0
713 -719 0
716 -719 0
717 -719 0
718 -719 0
711 712 -713 0
713 -711 0
713 -712 0
-711 -215 -216 0
215 711 0
216 711 0
712 -178 -176 0
178 -712 0
176 -712 0
715 177 -716 0
716 -715 0
716 -177 0
714 -715 -172 0
172 715 0
715 -714 0
714 171 170 0
-171 -714 0
-170 -714 0
-717 -177 -178 0
177 717 0
178 717 0
718 0
-723 -167 -169 0
167 723 0
169 723 0
-724 -166 -168 0
166 724 0
168 724 0
-727 -157 -159 0
157 727 0
159 727 0
-728 -156 -158 0
156 728 0
158 728 0
748 752 -753 0
753 -748 0
753 -752 0
747 -748 -4 0
4 748 0
748 -747 0
747 3 2 0
-3 -747 0
-2 -747 0
752 -15 -749 -750 -751 0
15 -752 0
749 -752 0
750 -752 0
751 -752 0
5 11 -749 0
749 -5 0
749 -11 0
10 12 -750 0
750 -10 0
750 -12 0
7 13 -751 0
751 -7 0
751 -13 0
754 755 -756 0
756 -754 0
756 -755 0
180 -754 -181 0
754 -180 0
181 754 0
755 -14 -8 -9 0
14 -755 0
8 -755 0
9 -755 0
757 758 -759 0
759 -757 0
759 -758 0
-757 -180 -181 0
180 757 0
181 757 0
758 -7 -6 0
7 -758 0
6 -758 0
